26

C -0.747362 -3.914325 4.283072
O -0.435406 -2.703104 3.621517
H 0.140859 -4.164776 4.861901
H -0.962362 -4.705225 3.562402
H -1.59693 -3.77625 4.951937
O -1.605096 -2.309771 2.929053
O 1.417244 -4.161704 0.500919
C 0.662604 -3.28561 0.849721
C -0.760757 -3.316451 0.919617
C -1.26588 -2.075757 1.545912
C -0.019132 -1.164864 1.43182
C -0.03697 -0.216731 0.233938
C 1.190749 0.682765 0.291503
O 1.085939 -2.067286 1.254766
O -1.540962 -4.307819 0.560811
O 1.195843 1.568339 -0.805496
O -0.097535 -0.930176 -0.978649
H -1.036328 -5.017252 0.129031
O -2.414059 -1.542433 1.028083
H -2.962832 -2.233731 0.633518
H 0.775669 -1.285577 -1.184294
H 2.041455 1.520603 -1.257958
H 0.122258 -0.614465 2.360197
H -0.940763 0.393009 0.287762
H 1.169216 1.245141 1.228443
H 2.086746 0.058543 0.287632
