20
	Energy:      41.4223086
O          4.51049        1.90354       -3.07345
C          3.67842        1.51073       -2.27200
C          3.29223        0.13795       -2.06627
C          2.37345        0.14690       -1.10464
C          2.13352        1.57473       -0.65039
C          0.68202        2.06555       -0.86629
C         -0.34368        1.33354        0.01654
O          3.00123        2.31945       -1.43842
O          3.78800       -0.93283       -2.72487
O         -1.62698        1.84762       -0.23008
O          0.60723        3.44993       -0.62717
H          3.49987       -1.83709       -2.54273
O          1.75898       -0.94382       -0.59479
H          1.93697       -1.84042       -0.90901
H          0.86962        3.60942        0.31738
H         -2.03525        2.06373        0.64877
H          2.41793        1.68770        0.41848
H          0.40955        1.89820       -1.93199
H         -0.35918        0.24744       -0.19986
H         -0.05649        1.46647        1.08733
