19

O 2.634586 1.46415 0.577622
C 2.265572 0.584408 -0.136834
C 0.92195 -0.077737 -0.168591
O 3.041148 0.012638 -1.073877
C 1.018318 -1.060887 -1.163485
O -0.073153 0.213172 0.503342
C 2.338311 -0.974435 -1.842658
O 0.06506 -1.847329 -1.543925
C 3.185274 -2.241733 -1.968456
H 2.186698 -0.567014 -2.848657
C 2.427873 -3.334529 -2.721089
O 4.380395 -1.906747 -2.627535
H 3.464175 -2.593377 -0.972794
O 3.269847 -4.438948 -2.950178
H 1.571354 -3.670595 -2.138009
H 2.057442 -2.925193 -3.66581
H 3.637903 -4.387618 -3.836133
H 4.193344 -1.672498 -3.548897
H -0.743299 -1.697865 -1.018162
