26
0.00 
C 3.130122 -1.879967 -3.551361
O 3.343295 -1.130586 -2.367581
H 3.355297 -1.196268 -4.368323
H 2.096747 -2.223881 -3.611791
H 3.818516 -2.724126 -3.578856
O 3.314484 -1.97825 -1.290637
O 2.083234 -1.423811 5.536305
C 1.481706 -1.36535 4.499271
C 0.347949 -2.16126 4.045428
C 0.01592 -1.728774 2.829775
C 0.952016 -0.643853 2.402793
C 1.871464 -0.941706 1.199734
C 1.190137 -1.615334 0.03204
O 1.790623 -0.461239 3.541911
O -0.193243 -3.082385 4.861225
O 0.295092 -0.777175 -0.579186
O 2.485825 0.258019 0.803343
H -0.942003 -3.530871 4.450328
O -0.988695 -2.060974 2.023924
H -1.551059 -2.751987 2.397472
H 1.831527 0.81495 0.362126
H -0.436143 -1.272029 -0.965143
H 0.404547 0.283711 2.218642
H 2.657341 -1.609684 1.557303
H 2.209611 -1.789853 -0.735598
H 0.817776 -2.619402 0.227607
