6
	Energy:       4.4601542
C         -2.80220        1.05669        0.03622
O         -1.46547        0.77551        0.34525
H         -3.45088        0.34512        0.58731
H         -2.99353        0.91571       -1.05045
H         -3.07439        2.08447        0.36321
O         -0.75003        1.64827       -0.33731
20
	Energy:      41.4223086
O          4.51049        1.90354       -3.07345
C          3.67842        1.51073       -2.27200
C          3.29223        0.13795       -2.06627
C          2.37345        0.14690       -1.10464
C          2.13352        1.57473       -0.65039
C          0.68202        2.06555       -0.86629
C         -0.34368        1.33354        0.01654
O          3.00123        2.31945       -1.43842
O          3.78800       -0.93283       -2.72487
O         -1.62698        1.84762       -0.23008
O          0.60723        3.44993       -0.62717
H          3.49987       -1.83709       -2.54273
O          1.75898       -0.94382       -0.59479
H          1.93697       -1.84042       -0.90901
H          0.86962        3.60942        0.31738
H         -2.03525        2.06373        0.64877
H          2.41793        1.68770        0.41848
H          0.40955        1.89820       -1.93199
H         -0.35918        0.24744       -0.19986
H         -0.05649        1.46647        1.08733
26

C -1.848386 -3.443278 3.347578
O -0.733812 -3.255195 2.49163
H -1.705546 -4.435461 3.772206
H -2.779159 -3.402822 2.782553
H -1.840819 -2.69616 4.141129
O -0.768626 -1.929963 2.000546
O -2.218471 -4.060051 0.058858
C -1.34862 -3.247551 0.05896
C -1.373569 -1.863529 0.713993
C -0.423669 -1.153874 -0.181898
C 0.590018 -2.18284 -0.57915
C 1.284502 -2.03718 -1.922095
C 2.124342 -0.768703 -1.98494
O -0.188839 -3.397638 -0.583988
O -2.622246 -1.303419 0.870722
O 2.754671 -0.658306 -3.237897
O 2.094783 -3.167128 -2.156415
H -3.030805 -1.150883 0.00771
O -0.063232 0.111551 0.044008
H -0.768764 0.596688 0.498787
H 2.782306 -3.218894 -1.479957
H 3.436612 -1.332924 -3.329999
H 1.35646 -2.284863 0.203208
H 0.536059 -2.018929 -2.718251
H 1.496992 0.112364 -1.858346
H 2.861701 -0.785465 -1.172693
26

C -0.747362 -3.914325 4.283072
O -0.435406 -2.703104 3.621517
H 0.140859 -4.164776 4.861901
H -0.962362 -4.705225 3.562402
H -1.59693 -3.77625 4.951937
O -1.605096 -2.309771 2.929053
O 1.417244 -4.161704 0.500919
C 0.662604 -3.28561 0.849721
C -0.760757 -3.316451 0.919617
C -1.26588 -2.075757 1.545912
C -0.019132 -1.164864 1.43182
C -0.03697 -0.216731 0.233938
C 1.190749 0.682765 0.291503
O 1.085939 -2.067286 1.254766
O -1.540962 -4.307819 0.560811
O 1.195843 1.568339 -0.805496
O -0.097535 -0.930176 -0.978649
H -1.036328 -5.017252 0.129031
O -2.414059 -1.542433 1.028083
H -2.962832 -2.233731 0.633518
H 0.775669 -1.285577 -1.184294
H 2.041455 1.520603 -1.257958
H 0.122258 -0.614465 2.360197
H -0.940763 0.393009 0.287762
H 1.169216 1.245141 1.228443
H 2.086746 0.058543 0.287632
7

C -1.074966 -4.35778 -1.501085
O -0.496917 -3.443443 -0.60341
H -2.162449 -4.348482 -1.410162
H -0.686678 -5.330576 -1.206567
H -0.781372 -4.13113 -2.526973
O -1.021317 -2.172202 -0.95803
H -0.286788 -1.574923 -0.724673
19

O 2.634586 1.46415 0.577622
C 2.265572 0.584408 -0.136834
C 0.92195 -0.077737 -0.168591
O 3.041148 0.012638 -1.073877
C 1.018318 -1.060887 -1.163485
O -0.073153 0.213172 0.503342
C 2.338311 -0.974435 -1.842658
O 0.06506 -1.847329 -1.543925
C 3.185274 -2.241733 -1.968456
H 2.186698 -0.567014 -2.848657
C 2.427873 -3.334529 -2.721089
O 4.380395 -1.906747 -2.627535
H 3.464175 -2.593377 -0.972794
O 3.269847 -4.438948 -2.950178
H 1.571354 -3.670595 -2.138009
H 2.057442 -2.925193 -3.66581
H 3.637903 -4.387618 -3.836133
H 4.193344 -1.672498 -3.548897
H -0.743299 -1.697865 -1.018162
19

O 3.534678 2.84675 1.633961
C 2.823638 1.919507 1.380171
C 1.985752 1.689155 0.206439
O 2.681958 0.853475 2.19278
C 1.3466 0.430322 0.334686
O 1.881126 2.512815 -0.787955
C 1.848157 -0.170377 1.630579
O 0.591156 -0.048159 -0.497813
C 0.793984 -0.627084 2.64133
H 2.485564 -1.025406 1.389478
C -0.236019 -1.492279 1.926358
O 1.432907 -1.316528 3.684191
H 0.322854 0.253908 3.08144
O -1.015357 -2.180871 2.873694
H -0.860407 -0.854961 1.300064
H 0.291302 -2.206639 1.285147
H 1.271019 2.162281 -1.463713
H -1.446611 -2.920219 2.433272
H 1.515103 -2.249229 3.449882
19

O -3.446912 -0.091404 -2.895542
C -2.777659 0.456772 -2.062024
C -2.456747 1.853282 -1.868158
O -2.153426 -0.240254 -1.060134
C -1.613365 1.936214 -0.779053
O -2.952673 2.776162 -2.679428
C -1.440174 0.641179 -0.282313
O -1.056951 3.014304 -0.221204
C -0.256012 0.014166 0.396508
C -0.692577 -1.135189 1.298183
O 0.646789 -0.420526 -0.596224
H 0.260119 0.776832 0.981906
O 0.439662 -1.699193 1.912154
H -1.385516 -0.748701 2.051544
H -1.221137 -1.876708 0.693899
H -2.750239 3.67884 -2.400228
H 0.328789 -2.651441 1.981322
H 0.265796 -1.173161 -1.066422
H -1.332674 3.831771 -0.654957
19

O 2.121645 -1.503539 5.579922
C 1.493746 -1.402603 4.560971
C 0.305236 -2.130395 4.135117
O 1.826617 -0.510367 3.599961
C -0.036642 -1.669995 2.932958
O -0.254376 -3.038463 4.95301
C 0.945003 -0.635847 2.48748
O -1.072523 -1.951993 2.149301
C 1.784795 -0.991841 1.233873
H 0.449604 0.324188 2.32344
C 1.018209 -1.706251 0.172717
O 2.376441 0.189274 0.741919
H 2.591089 -1.644662 1.573354
O 0.14335 -0.91397 -0.487855
H 0.766816 -2.752776 0.285608
H -1.0632 -3.407712 4.578972
H -0.507477 -1.435006 -0.972309
H 1.701131 0.7145 0.292978
H -1.651486 -2.625531 2.528837
25

C 4.3516 3.473803 1.508388
O 3.586951 2.287733 1.557844
H 3.949172 4.175704 0.774874
H 5.392246 3.247063 1.276106
H 4.271504 3.897558 2.507475
O 3.673445 1.686316 0.27918
O 0.411119 4.336022 0.997586
C 0.91034 3.305478 0.703253
C 1.802514 2.990512 -0.494784
O 0.810326 2.174133 1.425188
C 2.362294 1.592906 -0.258636
O 2.016818 3.679349 -1.437322
C 1.357009 1.021606 0.757209
O 2.481639 0.87215 -1.406226
C 0.208804 0.272563 0.085525
H 1.865015 0.417537 1.507102
C -0.77909 -0.290525 1.10267
O -0.446046 1.155444 -0.790514
H 0.637376 -0.544205 -0.498486
O -1.570574 0.727984 1.665126
H -1.467992 -0.960699 0.588981
H -0.246016 -0.864761 1.86695
H -1.007894 1.351285 2.137453
H -1.213188 1.510662 -0.320564
H 2.71353 1.474906 -2.127339
18

O 2.954115 2.305177 2.267891
C 2.31583 1.316958 2.206897
C 2.370929 0.045335 3.069626
O 1.364972 1.084397 1.250649
C 1.436963 -0.86062 2.430924
O 3.052525 -0.137573 4.034991
C 0.898866 -0.224488 1.381316
O 1.185783 -2.087261 2.906484
C -0.059233 -0.690117 0.317822
H 1.743752 -2.221671 3.685873
C -0.09383 0.277752 -0.860118
O 0.295407 -1.979027 -0.102487
H -1.062415 -0.75176 0.74869
O 1.182921 0.395408 -1.440648
H -0.750715 -0.157754 -1.612851
H -0.498441 1.24375 -0.553285
H 1.095628 -1.899265 -0.637194
H 1.68921 1.044139 -0.942782
25

C 0.0711 -0.028405 -0.579662
O 0.391005 1.251522 -1.076641
H 0.450663 -0.798845 -1.249862
H -1.007831 -0.125645 -0.462601
H 0.559468 -0.093889 0.389819
O -0.347764 1.322885 -2.292652
O 2.602933 1.252074 -3.308406
C 1.858953 2.104178 -2.952711
C 0.354264 2.123363 -3.231614
O 2.228245 3.22964 -2.329702
C -0.010102 3.577799 -2.94208
O 0.046485 1.694788 -4.479981
C 1.122623 4.094742 -2.057009
O -0.982396 4.169669 -3.271289
C 1.438012 5.552139 -2.304072
H 0.829109 3.958247 -1.010542
C 2.600333 6.056032 -1.466965
O 1.689124 5.745999 -3.667846
H 0.526032 6.090868 -2.002423
O 2.723867 7.451666 -1.628693
H 2.474311 5.77678 -0.416892
H 3.524478 5.612724 -1.838695
H 0.602451 0.926538 -4.680198
H 1.998368 7.893179 -1.178172
H 2.011373 6.645372 -3.78924
18

O 1.833542 -1.37521 2.290507
C 1.669118 -1.546822 1.134431
C 0.810238 -0.707839 0.186168
O 2.235344 -2.53992 0.417729
C 0.920032 -1.397831 -1.168482
O 0.227021 0.293587 0.447166
C 1.915389 -2.526988 -0.97564
O 0.35449 -1.103265 -2.170382
C 1.329605 -3.840262 -1.45697
H 2.825806 -2.303506 -1.53957
C 2.299025 -5.004619 -1.41236
O 0.188128 -4.104536 -0.692993
H 1.056386 -3.654282 -2.50744
O 1.662053 -6.147746 -1.936501
H 3.214589 -4.761319 -1.96053
H 2.55642 -5.231276 -0.377439
H -0.055715 -5.027902 -0.819722
H 1.54387 -6.042332 -2.886049
