25
0.00 
C 2.002241 4.251747 1.360016
O 2.088962 2.912929 0.835806
H 2.629395 4.880448 0.720384
H 2.377696 4.253526 2.382776
H 0.966156 4.595342 1.333953
O 1.627562 2.051846 1.736063
O 2.055794 -1.234034 2.253228
C 1.869997 -1.437107 1.101079
C 1.087255 -0.619946 0.141211
O 2.365901 -2.509543 0.432575
C 1.144421 -1.301472 -1.165178
O 0.438202 0.421363 0.401457
C 2.017827 -2.506945 -0.954214
O 0.628188 -0.999564 -2.204933
C 1.30288 -3.772679 -1.3918
H 2.931533 -2.386415 -1.543456
C 2.173575 -5.011138 -1.327483
O 0.149754 -3.93005 -0.614787
H 1.032463 -3.590714 -2.443638
O 1.446789 -6.113316 -1.823521
H 3.102029 -4.854865 -1.886134
H 2.420014 -5.236305 -0.288773
H 0.938762 1.185906 1.17143
H 1.299856 -5.994801 -2.767747
H -0.157657 -4.839657 -0.713683
