26
0.00 
C 1.575142 -2.484088 -3.537483
O 0.879062 -2.163756 -2.346076
H 1.599945 -1.627098 -4.210681
H 1.118772 -3.353193 -4.011166
H 2.584402 -2.739359 -3.216938
O -0.394272 -1.754468 -2.664034
O 4.868463 1.414029 0.380675
C 3.682962 1.564556 0.267015
C 2.642659 1.516166 1.285563
C 1.481466 1.802693 0.694468
C 1.690325 1.932016 -0.785137
C 1.125832 0.819276 -1.69816
C -0.323385 0.455716 -1.488211
O 3.110488 1.861963 -0.920236
O 2.96099 1.321658 2.579465
O -0.604757 -0.067328 -0.255182
O 1.334056 1.177373 -3.03853
H 2.236587 0.908473 3.065457
O 0.286517 2.038409 1.225734
H 0.31256 2.074121 2.192435
H 0.738599 1.899368 -3.277647
H -1.158137 0.530862 0.261316
H 1.354171 2.908186 -1.14343
H 1.737169 -0.067181 -1.505055
H -1.042702 1.18598 -1.861381
H -0.420597 -0.576362 -2.274246
