25

C 4.3516 3.473803 1.508388
O 3.586951 2.287733 1.557844
H 3.949172 4.175704 0.774874
H 5.392246 3.247063 1.276106
H 4.271504 3.897558 2.507475
O 3.673445 1.686316 0.27918
O 0.411119 4.336022 0.997586
C 0.91034 3.305478 0.703253
C 1.802514 2.990512 -0.494784
O 0.810326 2.174133 1.425188
C 2.362294 1.592906 -0.258636
O 2.016818 3.679349 -1.437322
C 1.357009 1.021606 0.757209
O 2.481639 0.87215 -1.406226
C 0.208804 0.272563 0.085525
H 1.865015 0.417537 1.507102
C -0.77909 -0.290525 1.10267
O -0.446046 1.155444 -0.790514
H 0.637376 -0.544205 -0.498486
O -1.570574 0.727984 1.665126
H -1.467992 -0.960699 0.588981
H -0.246016 -0.864761 1.86695
H -1.007894 1.351285 2.137453
H -1.213188 1.510662 -0.320564
H 2.71353 1.474906 -2.127339
