18

O 1.833542 -1.37521 2.290507
C 1.669118 -1.546822 1.134431
C 0.810238 -0.707839 0.186168
O 2.235344 -2.53992 0.417729
C 0.920032 -1.397831 -1.168482
O 0.227021 0.293587 0.447166
C 1.915389 -2.526988 -0.97564
O 0.35449 -1.103265 -2.170382
C 1.329605 -3.840262 -1.45697
H 2.825806 -2.303506 -1.53957
C 2.299025 -5.004619 -1.41236
O 0.188128 -4.104536 -0.692993
H 1.056386 -3.654282 -2.50744
O 1.662053 -6.147746 -1.936501
H 3.214589 -4.761319 -1.96053
H 2.55642 -5.231276 -0.377439
H -0.055715 -5.027902 -0.819722
H 1.54387 -6.042332 -2.886049
