18

O 2.954115 2.305177 2.267891
C 2.31583 1.316958 2.206897
C 2.370929 0.045335 3.069626
O 1.364972 1.084397 1.250649
C 1.436963 -0.86062 2.430924
O 3.052525 -0.137573 4.034991
C 0.898866 -0.224488 1.381316
O 1.185783 -2.087261 2.906484
C -0.059233 -0.690117 0.317822
H 1.743752 -2.221671 3.685873
C -0.09383 0.277752 -0.860118
O 0.295407 -1.979027 -0.102487
H -1.062415 -0.75176 0.74869
O 1.182921 0.395408 -1.440648
H -0.750715 -0.157754 -1.612851
H -0.498441 1.24375 -0.553285
H 1.095628 -1.899265 -0.637194
H 1.68921 1.044139 -0.942782
