19

O -3.446912 -0.091404 -2.895542
C -2.777659 0.456772 -2.062024
C -2.456747 1.853282 -1.868158
O -2.153426 -0.240254 -1.060134
C -1.613365 1.936214 -0.779053
O -2.952673 2.776162 -2.679428
C -1.440174 0.641179 -0.282313
O -1.056951 3.014304 -0.221204
C -0.256012 0.014166 0.396508
C -0.692577 -1.135189 1.298183
O 0.646789 -0.420526 -0.596224
H 0.260119 0.776832 0.981906
O 0.439662 -1.699193 1.912154
H -1.385516 -0.748701 2.051544
H -1.221137 -1.876708 0.693899
H -2.750239 3.67884 -2.400228
H 0.328789 -2.651441 1.981322
H 0.265796 -1.173161 -1.066422
H -1.332674 3.831771 -0.654957
