19

O 3.534678 2.84675 1.633961
C 2.823638 1.919507 1.380171
C 1.985752 1.689155 0.206439
O 2.681958 0.853475 2.19278
C 1.3466 0.430322 0.334686
O 1.881126 2.512815 -0.787955
C 1.848157 -0.170377 1.630579
O 0.591156 -0.048159 -0.497813
C 0.793984 -0.627084 2.64133
H 2.485564 -1.025406 1.389478
C -0.236019 -1.492279 1.926358
O 1.432907 -1.316528 3.684191
H 0.322854 0.253908 3.08144
O -1.015357 -2.180871 2.873694
H -0.860407 -0.854961 1.300064
H 0.291302 -2.206639 1.285147
H 1.271019 2.162281 -1.463713
H -1.446611 -2.920219 2.433272
H 1.515103 -2.249229 3.449882
