   26
FINAL HEAT OF FORMATION =    18.245150
 C    -0.077677     1.991608    -3.073236
 O    -1.330094     1.533481    -3.530854
 H     0.047199     2.972991    -3.521956
 H     0.701448     1.311801    -3.425644
 H    -0.057547     2.052029    -1.980889
 O    -1.683098     0.349628    -3.029912
 O     3.065894     1.307822     0.866340
 C     2.643714     0.662614    -0.046633
 C     1.236955     0.374676    -0.310635
 C     1.148581    -0.396233    -1.436691
 C     2.565929    -0.611558    -1.919516
 C     3.033819    -2.059230    -1.997016
 C     2.124435    -2.977671    -2.801976
 O     3.398518     0.099241    -1.008539
 O     0.293233     0.837923     0.500859
 O     2.725249    -4.240632    -2.904278
 O     4.338822    -2.098399    -2.538599
 H     0.736430     1.305010     1.227728
 O     0.153378    -0.859390    -2.077065
 H    -0.863026    -0.178752    -2.476114
 H     4.350495    -1.625749    -3.377910
 H     3.669683    -4.104259    -3.039894
 H     2.668283    -0.154495    -2.912359
 H     3.121356    -2.448996    -0.979689
 H     1.158074    -3.097006    -2.315798
 H     1.943753    -2.540018    -3.794972
