26
0.00 
C -3.220886 0.176219 3.900612
O -2.69783 1.180959 3.044068
H -2.815301 0.404623 4.882929
H -2.903996 -0.818843 3.587456
H -4.307714 0.239647 3.915172
O -3.343964 1.134829 1.846233
O -3.396879 -0.083505 -2.868146
C -2.80014 0.454266 -1.981356
C -2.391117 1.845947 -1.838752
C -1.704123 1.948838 -0.688558
C -1.705266 0.646185 -0.017027
C -0.395984 0.040113 0.470572
C -0.653108 -1.150827 1.379951
O -2.379155 -0.227675 -0.876425
O -2.723689 2.73089 -2.784747
O 0.578624 -1.671798 1.819178
O 0.382775 -0.312825 -0.647048
H -2.513818 3.638361 -2.530766
O -1.125133 2.991871 -0.103992
H -1.251704 3.810242 -0.602179
H -0.020806 -1.068998 -1.09138
H 0.525358 -2.630106 1.873648
H -2.490678 0.869679 1.001832
H 0.157972 0.811045 1.009408
H -1.253422 -0.815181 2.229595
H -1.221611 -1.90455 0.828531
