26
0.00 
C 0.160402 2.97671 -2.364544
O -1.219231 2.69348 -2.264181
H 0.241875 3.92499 -2.887587
H 0.662749 2.181602 -2.921803
H 0.600483 3.05121 -1.365365
O -1.413992 1.441058 -1.827411
O 2.789574 1.970153 -0.719248
C 2.368937 0.93093 -1.11146
C 1.065646 0.282393 -0.834888
C 1.046684 -0.876408 -1.54643
C 2.315988 -1.031746 -2.314378
C 3.16259 -2.271887 -2.052188
C 2.446124 -3.574662 -2.380059
O 3.059775 0.126319 -1.96719
O 0.09844 0.766314 -0.128117
O 3.344269 -4.638656 -2.256403
O 4.345814 -2.187603 -2.813375
H -0.693482 1.213172 -0.946623
O 0.057477 -1.741692 -1.628604
H -0.6951 -1.413616 -1.110232
H 4.141378 -1.926491 -3.71744
H 4.172197 -4.37183 -2.672689
H 2.090744 -0.9898 -3.389382
H 3.475825 -2.280106 -1.005764
H 1.617988 -3.753362 -1.694101
H 2.03446 -3.515162 -3.399739
