25
0.00 
C -0.1301 -0.007412 -0.431045
O 0.208511 1.332775 -0.779996
H 0.095694 -0.667513 -1.264963
H -1.188571 -0.048468 -0.182737
H 0.481331 -0.257241 0.43275
O -0.458708 1.690026 -1.847091
O 2.797773 1.226309 -3.103205
C 2.048349 2.154411 -3.011562
C 0.796998 2.305891 -3.743166
O 2.218123 3.2133 -2.205775
C 0.200169 3.574511 -3.39457
O 0.458268 1.47606 -4.693697
C 1.078073 4.079411 -2.248074
O -0.78291 4.111267 -3.82184
C 1.43223 5.535559 -2.380845
H 0.524712 3.935427 -1.317999
C 2.398609 5.999228 -1.306272
O 1.951826 5.781574 -3.657281
H 0.475382 6.063486 -2.25029
O 2.517431 7.405233 -1.348159
H 2.08052 5.649039 -0.320065
H 3.385083 5.585629 -1.519587
H 1.10545 0.750042 -4.706948
H 1.758404 7.802725 -0.91321
H 2.22483 6.705097 -3.694687
