26

C -1.848386 -3.443278 3.347578
O -0.733812 -3.255195 2.49163
H -1.705546 -4.435461 3.772206
H -2.779159 -3.402822 2.782553
H -1.840819 -2.69616 4.141129
O -0.768626 -1.929963 2.000546
O -2.218471 -4.060051 0.058858
C -1.34862 -3.247551 0.05896
C -1.373569 -1.863529 0.713993
C -0.423669 -1.153874 -0.181898
C 0.590018 -2.18284 -0.57915
C 1.284502 -2.03718 -1.922095
C 2.124342 -0.768703 -1.98494
O -0.188839 -3.397638 -0.583988
O -2.622246 -1.303419 0.870722
O 2.754671 -0.658306 -3.237897
O 2.094783 -3.167128 -2.156415
H -3.030805 -1.150883 0.00771
O -0.063232 0.111551 0.044008
H -0.768764 0.596688 0.498787
H 2.782306 -3.218894 -1.479957
H 3.436612 -1.332924 -3.329999
H 1.35646 -2.284863 0.203208
H 0.536059 -2.018929 -2.718251
H 1.496992 0.112364 -1.858346
H 2.861701 -0.785465 -1.172693
