26
0.00 
C -0.448276 -3.856173 4.216401
O -0.683442 -2.508465 3.841676
H 0.41856 -3.841601 4.874062
H -0.238639 -4.461978 3.332178
H -1.316426 -4.254228 4.740105
O -1.791127 -2.43328 3.074701
O 1.233562 -4.232509 0.855913
C 0.481309 -3.305402 1.005288
C -0.951791 -3.28556 0.832561
C -1.410133 -2.037978 1.1914
C -0.202724 -1.148755 1.340328
C -0.004902 -0.209455 0.142867
C 1.220021 0.663961 0.373309
O 0.890076 -2.073692 1.37233
O -1.685164 -4.323379 0.4626
O 1.400661 1.536932 -0.719066
O 0.095755 -0.942507 -1.050669
H -1.117834 -5.064554 0.199516
O -2.593014 -1.511895 0.915095
H -3.212697 -2.183126 0.594182
H 0.970549 -1.345895 -1.110153
H 2.289872 1.44238 -1.068303
H -0.220403 -0.590485 2.276223
H -0.895422 0.417585 0.056947
H 1.07721 1.237484 1.29246
H 2.093594 0.02102 0.502292
