25
0.00 
C -3.027649 1.420158 4.371309
O -1.990555 0.484579 4.134576
H -3.415535 1.816793 3.43181
H -2.651777 2.23299 4.991594
H -3.804053 0.872001 4.901722
O -0.948934 1.114758 3.566472
O 2.946113 2.421109 1.935435
C 2.1707 1.530706 1.975074
C 2.315995 0.158054 2.608243
O 0.946261 1.568506 1.378293
C 1.133247 -0.53828 2.22791
O 3.255586 -0.286185 3.233576
C 0.258622 0.334875 1.51575
O 0.905493 -1.786846 2.56075
C -0.389008 -0.119076 0.20628
H -0.619538 0.579548 2.414584
C 0.608183 0.024859 -0.94405
O -0.838147 -1.433233 0.335891
H -1.258768 0.501637 -0.016001
O 1.765798 -0.737983 -0.681811
H 0.122789 -0.374978 -1.836478
H 0.844942 1.075135 -1.107547
H 2.522222 -0.165279 -0.537546
H -0.076893 -2.025801 0.36326
H 1.646927 -2.091 3.111859
