19

O 2.121645 -1.503539 5.579922
C 1.493746 -1.402603 4.560971
C 0.305236 -2.130395 4.135117
O 1.826617 -0.510367 3.599961
C -0.036642 -1.669995 2.932958
O -0.254376 -3.038463 4.95301
C 0.945003 -0.635847 2.48748
O -1.072523 -1.951993 2.149301
C 1.784795 -0.991841 1.233873
H 0.449604 0.324188 2.32344
C 1.018209 -1.706251 0.172717
O 2.376441 0.189274 0.741919
H 2.591089 -1.644662 1.573354
O 0.14335 -0.91397 -0.487855
H 0.766816 -2.752776 0.285608
H -1.0632 -3.407712 4.578972
H -0.507477 -1.435006 -0.972309
H 1.701131 0.7145 0.292978
H -1.651486 -2.625531 2.528837
