26
0.00 
C -1.701495 -3.565296 3.397011
O -0.599024 -3.098883 2.630408
H -1.287825 -4.277002 4.11151
H -2.447307 -4.044246 2.761826
H -2.142473 -2.729407 3.936845
O -0.863497 -1.811929 2.206793
O -2.296354 -3.932207 0.140613
C -1.437659 -3.105779 0.050775
C -1.501344 -1.685484 0.458149
C -0.376112 -1.097565 -0.092924
C 0.58578 -2.165607 -0.496302
C 1.246963 -2.035124 -1.870788
C 2.214262 -0.856979 -1.902376
O -0.220678 -3.351202 -0.455139
O -2.651539 -1.032002 0.696388
O 2.795136 -0.736771 -3.181644
O 1.907698 -3.234721 -2.182406
H -3.354784 -1.341994 0.108896
O -0.061813 0.177725 -0.07038
H -0.799502 0.713605 0.263942
H 2.630934 -3.385613 -1.561112
H 3.707323 -1.036986 -3.161708
H 1.369854 -2.276381 0.263043
H 0.475933 -1.900317 -2.633446
H 1.688117 0.068593 -1.670407
H 2.982313 -1.014389 -1.13985
