25

C 0.0711 -0.028405 -0.579662
O 0.391005 1.251522 -1.076641
H 0.450663 -0.798845 -1.249862
H -1.007831 -0.125645 -0.462601
H 0.559468 -0.093889 0.389819
O -0.347764 1.322885 -2.292652
O 2.602933 1.252074 -3.308406
C 1.858953 2.104178 -2.952711
C 0.354264 2.123363 -3.231614
O 2.228245 3.22964 -2.329702
C -0.010102 3.577799 -2.94208
O 0.046485 1.694788 -4.479981
C 1.122623 4.094742 -2.057009
O -0.982396 4.169669 -3.271289
C 1.438012 5.552139 -2.304072
H 0.829109 3.958247 -1.010542
C 2.600333 6.056032 -1.466965
O 1.689124 5.745999 -3.667846
H 0.526032 6.090868 -2.002423
O 2.723867 7.451666 -1.628693
H 2.474311 5.77678 -0.416892
H 3.524478 5.612724 -1.838695
H 0.602451 0.926538 -4.680198
H 1.998368 7.893179 -1.178172
H 2.011373 6.645372 -3.78924
